SCIP Status        : problem creation / modification
Total Time         :       0.07
  reading          :       0.07
Original Problem   :
  Problem name     : main4.zpl
  Variables        : 6040 (6040 binary, 0 integer, 0 implicit integer, 0 continuous)
  Constraints      : 0 initial, 6190 maximal
  Objective        : minimize, 6040 non-zeros (abs.min = 0.0017, abs.max = 5700)
